symmetric/AES/create_CPLEX-LP_SS_10R.txt
Minimize
x0 + x1 + x2 + x3 + x4 + x5 + x6 + x7 + x8 + x9 + x10 + x11 + x12 + x13 + x14 + x15 + x16 + x17 + x18 + x19 + x20 + x21 + x22 + x23 + x24 + x25 + x26 + x27 + x28 + x29 + x30 + x31 + x32 + x33 + x34 + x35 + x36 + x37 + x38 + x39 + x40 + x41 + x42 + x43 + x44 + x45 + x46 + x47 + x48 + x49 + x50 + x51 + x52 + x53 + x54 + x55 + x56 + x57 + x58 + x59 + x60 + x61 + x62 + x63 + x64 + x65 + x66 + x67 + x68 + x69 + x70 + x71 + x72 + x73 + x74 + x75 + x76 + x77 + x78 + x79 + x80 + x81 + x82 + x83 + x84 + x85 + x86 + x87 + x88 + x89 + x90 + x91 + x92 + x93 + x94 + x95 + x96 + x97 + x98 + x99 + x100 + x101 + x102 + x103 + x104 + x105 + x106 + x107 + x108 + x109 + x110 + x111 + x112 + x113 + x114 + x115 + x116 + x117 + x118 + x119 + x120 + x121 + x122 + x123 + x124 + x125 + x126 + x127 + x128 + x129 + x130 + x131 + x132 + x133 + x134 + x135 + x136 + x137 + x138 + x139 + x140 + x141 + x142 + x143 + x144 + x145 + x146 + x147 + x148 + x149 + x150 + x151 + x152 + x153 + x154 + x155 + x156 + x157 + x158 + x159

Subject To
x0 + x6 + x8 + x14 + x16 + x17 + x18 + x19 - 5 d0 >= 0
d0 - x0 >= 0
d0 - x6 >= 0
d0 - x8 >= 0
d0 - x14 >= 0
d0 - x16 >= 0
d0 - x17 >= 0
d0 - x18 >= 0
d0 - x19 >= 0
x1 + x7 + x9 + x15 + x20 + x21 + x22 + x23 - 5 d1 >= 0
d1 - x1 >= 0
d1 - x7 >= 0
d1 - x9 >= 0
d1 - x15 >= 0
d1 - x20 >= 0
d1 - x21 >= 0
d1 - x22 >= 0
d1 - x23 >= 0
x2 + x4 + x10 + x12 + x24 + x25 + x26 + x27 - 5 d2 >= 0
d2 - x2 >= 0
d2 - x4 >= 0
d2 - x10 >= 0
d2 - x12 >= 0
d2 - x24 >= 0
d2 - x25 >= 0
d2 - x26 >= 0
d2 - x27 >= 0
x3 + x5 + x11 + x13 + x28 + x29 + x30 + x31 - 5 d3 >= 0
d3 - x3 >= 0
d3 - x5 >= 0
d3 - x11 >= 0
d3 - x13 >= 0
d3 - x28 >= 0
d3 - x29 >= 0
d3 - x30 >= 0
d3 - x31 >= 0
x16 + x25 + x18 + x27 + x32 + x33 + x34 + x35 - 5 d4 >= 0
d4 - x16 >= 0
d4 - x25 >= 0
d4 - x18 >= 0
d4 - x27 >= 0
d4 - x32 >= 0
d4 - x33 >= 0
d4 - x34 >= 0
d4 - x35 >= 0
x20 + x29 + x22 + x31 + x36 + x37 + x38 + x39 - 5 d5 >= 0
d5 - x20 >= 0
d5 - x29 >= 0
d5 - x22 >= 0
d5 - x31 >= 0
d5 - x36 >= 0
d5 - x37 >= 0
d5 - x38 >= 0
d5 - x39 >= 0
x24 + x17 + x26 + x19 + x40 + x41 + x42 + x43 - 5 d6 >= 0
d6 - x24 >= 0
d6 - x17 >= 0
d6 - x26 >= 0
d6 - x19 >= 0
d6 - x40 >= 0
d6 - x41 >= 0
d6 - x42 >= 0
d6 - x43 >= 0
x28 + x21 + x30 + x23 + x44 + x45 + x46 + x47 - 5 d7 >= 0
d7 - x28 >= 0
d7 - x21 >= 0
d7 - x30 >= 0
d7 - x23 >= 0
d7 - x44 >= 0
d7 - x45 >= 0
d7 - x46 >= 0
d7 - x47 >= 0
x32 + x41 + x34 + x43 + x48 + x49 + x50 + x51 - 5 d8 >= 0
d8 - x32 >= 0
d8 - x41 >= 0
d8 - x34 >= 0
d8 - x43 >= 0
d8 - x48 >= 0
d8 - x49 >= 0
d8 - x50 >= 0
d8 - x51 >= 0
x36 + x45 + x38 + x47 + x52 + x53 + x54 + x55 - 5 d9 >= 0
d9 - x36 >= 0
d9 - x45 >= 0
d9 - x38 >= 0
d9 - x47 >= 0
d9 - x52 >= 0
d9 - x53 >= 0
d9 - x54 >= 0
d9 - x55 >= 0
x40 + x33 + x42 + x35 + x56 + x57 + x58 + x59 - 5 d10 >= 0
d10 - x40 >= 0
d10 - x33 >= 0
d10 - x42 >= 0
d10 - x35 >= 0
d10 - x56 >= 0
d10 - x57 >= 0
d10 - x58 >= 0
d10 - x59 >= 0
x44 + x37 + x46 + x39 + x60 + x61 + x62 + x63 - 5 d11 >= 0
d11 - x44 >= 0
d11 - x37 >= 0
d11 - x46 >= 0
d11 - x39 >= 0
d11 - x60 >= 0
d11 - x61 >= 0
d11 - x62 >= 0
d11 - x63 >= 0
x48 + x57 + x50 + x59 + x64 + x65 + x66 + x67 - 5 d12 >= 0
d12 - x48 >= 0
d12 - x57 >= 0
d12 - x50 >= 0
d12 - x59 >= 0
d12 - x64 >= 0
d12 - x65 >= 0
d12 - x66 >= 0
d12 - x67 >= 0
x52 + x61 + x54 + x63 + x68 + x69 + x70 + x71 - 5 d13 >= 0
d13 - x52 >= 0
d13 - x61 >= 0
d13 - x54 >= 0
d13 - x63 >= 0
d13 - x68 >= 0
d13 - x69 >= 0
d13 - x70 >= 0
d13 - x71 >= 0
x56 + x49 + x58 + x51 + x72 + x73 + x74 + x75 - 5 d14 >= 0
d14 - x56 >= 0
d14 - x49 >= 0
d14 - x58 >= 0
d14 - x51 >= 0
d14 - x72 >= 0
d14 - x73 >= 0
d14 - x74 >= 0
d14 - x75 >= 0
x60 + x53 + x62 + x55 + x76 + x77 + x78 + x79 - 5 d15 >= 0
d15 - x60 >= 0
d15 - x53 >= 0
d15 - x62 >= 0
d15 - x55 >= 0
d15 - x76 >= 0
d15 - x77 >= 0
d15 - x78 >= 0
d15 - x79 >= 0
x64 + x73 + x66 + x75 + x80 + x81 + x82 + x83 - 5 d16 >= 0
d16 - x64 >= 0
d16 - x73 >= 0
d16 - x66 >= 0
d16 - x75 >= 0
d16 - x80 >= 0
d16 - x81 >= 0
d16 - x82 >= 0
d16 - x83 >= 0
x68 + x77 + x70 + x79 + x84 + x85 + x86 + x87 - 5 d17 >= 0
d17 - x68 >= 0
d17 - x77 >= 0
d17 - x70 >= 0
d17 - x79 >= 0
d17 - x84 >= 0
d17 - x85 >= 0
d17 - x86 >= 0
d17 - x87 >= 0
x72 + x65 + x74 + x67 + x88 + x89 + x90 + x91 - 5 d18 >= 0
d18 - x72 >= 0
d18 - x65 >= 0
d18 - x74 >= 0
d18 - x67 >= 0
d18 - x88 >= 0
d18 - x89 >= 0
d18 - x90 >= 0
d18 - x91 >= 0
x76 + x69 + x78 + x71 + x92 + x93 + x94 + x95 - 5 d19 >= 0
d19 - x76 >= 0
d19 - x69 >= 0
d19 - x78 >= 0
d19 - x71 >= 0
d19 - x92 >= 0
d19 - x93 >= 0
d19 - x94 >= 0
d19 - x95 >= 0
x80 + x89 + x82 + x91 + x96 + x97 + x98 + x99 - 5 d20 >= 0
d20 - x80 >= 0
d20 - x89 >= 0
d20 - x82 >= 0
d20 - x91 >= 0
d20 - x96 >= 0
d20 - x97 >= 0
d20 - x98 >= 0
d20 - x99 >= 0
x84 + x93 + x86 + x95 + x100 + x101 + x102 + x103 - 5 d21 >= 0
d21 - x84 >= 0
d21 - x93 >= 0
d21 - x86 >= 0
d21 - x95 >= 0
d21 - x100 >= 0
d21 - x101 >= 0
d21 - x102 >= 0
d21 - x103 >= 0
x88 + x81 + x90 + x83 + x104 + x105 + x106 + x107 - 5 d22 >= 0
d22 - x88 >= 0
d22 - x81 >= 0
d22 - x90 >= 0
d22 - x83 >= 0
d22 - x104 >= 0
d22 - x105 >= 0
d22 - x106 >= 0
d22 - x107 >= 0
x92 + x85 + x94 + x87 + x108 + x109 + x110 + x111 - 5 d23 >= 0
d23 - x92 >= 0
d23 - x85 >= 0
d23 - x94 >= 0
d23 - x87 >= 0
d23 - x108 >= 0
d23 - x109 >= 0
d23 - x110 >= 0
d23 - x111 >= 0
x96 + x105 + x98 + x107 + x112 + x113 + x114 + x115 - 5 d24 >= 0
d24 - x96 >= 0
d24 - x105 >= 0
d24 - x98 >= 0
d24 - x107 >= 0
d24 - x112 >= 0
d24 - x113 >= 0
d24 - x114 >= 0
d24 - x115 >= 0
x100 + x109 + x102 + x111 + x116 + x117 + x118 + x119 - 5 d25 >= 0
d25 - x100 >= 0
d25 - x109 >= 0
d25 - x102 >= 0
d25 - x111 >= 0
d25 - x116 >= 0
d25 - x117 >= 0
d25 - x118 >= 0
d25 - x119 >= 0
x104 + x97 + x106 + x99 + x120 + x121 + x122 + x123 - 5 d26 >= 0
d26 - x104 >= 0
d26 - x97 >= 0
d26 - x106 >= 0
d26 - x99 >= 0
d26 - x120 >= 0
d26 - x121 >= 0
d26 - x122 >= 0
d26 - x123 >= 0
x108 + x101 + x110 + x103 + x124 + x125 + x126 + x127 - 5 d27 >= 0
d27 - x108 >= 0
d27 - x101 >= 0
d27 - x110 >= 0
d27 - x103 >= 0
d27 - x124 >= 0
d27 - x125 >= 0
d27 - x126 >= 0
d27 - x127 >= 0
x112 + x121 + x114 + x123 + x128 + x129 + x130 + x131 - 5 d28 >= 0
d28 - x112 >= 0
d28 - x121 >= 0
d28 - x114 >= 0
d28 - x123 >= 0
d28 - x128 >= 0
d28 - x129 >= 0
d28 - x130 >= 0
d28 - x131 >= 0
x116 + x125 + x118 + x127 + x132 + x133 + x134 + x135 - 5 d29 >= 0
d29 - x116 >= 0
d29 - x125 >= 0
d29 - x118 >= 0
d29 - x127 >= 0
d29 - x132 >= 0
d29 - x133 >= 0
d29 - x134 >= 0
d29 - x135 >= 0
x120 + x113 + x122 + x115 + x136 + x137 + x138 + x139 - 5 d30 >= 0
d30 - x120 >= 0
d30 - x113 >= 0
d30 - x122 >= 0
d30 - x115 >= 0
d30 - x136 >= 0
d30 - x137 >= 0
d30 - x138 >= 0
d30 - x139 >= 0
x124 + x117 + x126 + x119 + x140 + x141 + x142 + x143 - 5 d31 >= 0
d31 - x124 >= 0
d31 - x117 >= 0
d31 - x126 >= 0
d31 - x119 >= 0
d31 - x140 >= 0
d31 - x141 >= 0
d31 - x142 >= 0
d31 - x143 >= 0
x128 + x137 + x130 + x139 + x144 + x145 + x146 + x147 - 5 d32 >= 0
d32 - x128 >= 0
d32 - x137 >= 0
d32 - x130 >= 0
d32 - x139 >= 0
d32 - x144 >= 0
d32 - x145 >= 0
d32 - x146 >= 0
d32 - x147 >= 0
x132 + x141 + x134 + x143 + x148 + x149 + x150 + x151 - 5 d33 >= 0
d33 - x132 >= 0
d33 - x141 >= 0
d33 - x134 >= 0
d33 - x143 >= 0
d33 - x148 >= 0
d33 - x149 >= 0
d33 - x150 >= 0
d33 - x151 >= 0
x136 + x129 + x138 + x131 + x152 + x153 + x154 + x155 - 5 d34 >= 0
d34 - x136 >= 0
d34 - x129 >= 0
d34 - x138 >= 0
d34 - x131 >= 0
d34 - x152 >= 0
d34 - x153 >= 0
d34 - x154 >= 0
d34 - x155 >= 0
x140 + x133 + x142 + x135 + x156 + x157 + x158 + x159 - 5 d35 >= 0
d35 - x140 >= 0
d35 - x133 >= 0
d35 - x142 >= 0
d35 - x135 >= 0
d35 - x156 >= 0
d35 - x157 >= 0
d35 - x158 >= 0
d35 - x159 >= 0
x144 + x153 + x146 + x155 + x160 + x161 + x162 + x163 - 5 d36 >= 0
d36 - x144 >= 0
d36 - x153 >= 0
d36 - x146 >= 0
d36 - x155 >= 0
d36 - x160 >= 0
d36 - x161 >= 0
d36 - x162 >= 0
d36 - x163 >= 0
x148 + x157 + x150 + x159 + x164 + x165 + x166 + x167 - 5 d37 >= 0
d37 - x148 >= 0
d37 - x157 >= 0
d37 - x150 >= 0
d37 - x159 >= 0
d37 - x164 >= 0
d37 - x165 >= 0
d37 - x166 >= 0
d37 - x167 >= 0
x152 + x145 + x154 + x147 + x168 + x169 + x170 + x171 - 5 d38 >= 0
d38 - x152 >= 0
d38 - x145 >= 0
d38 - x154 >= 0
d38 - x147 >= 0
d38 - x168 >= 0
d38 - x169 >= 0
d38 - x170 >= 0
d38 - x171 >= 0
x156 + x149 + x158 + x151 + x172 + x173 + x174 + x175 - 5 d39 >= 0
d39 - x156 >= 0
d39 - x149 >= 0
d39 - x158 >= 0
d39 - x151 >= 0
d39 - x172 >= 0
d39 - x173 >= 0
d39 - x174 >= 0
d39 - x175 >= 0
x0 + x1 + x2 + x3 + x4 + x5 + x6 + x7 + x8 + x9 + x10 + x11 + x12 + x13 + x14 + x15 + x16 + x17 + x18 + x19 + x20 + x21 + x22 + x23 + x24 + x25 + x26 + x27 + x28 + x29 + x30 + x31 + x32 + x33 + x34 + x35 + x36 + x37 + x38 + x39 + x40 + x41 + x42 + x43 + x44 + x45 + x46 + x47 + x48 + x49 + x50 + x51 + x52 + x53 + x54 + x55 + x56 + x57 + x58 + x59 + x60 + x61 + x62 + x63 + x64 + x65 + x66 + x67 + x68 + x69 + x70 + x71 + x72 + x73 + x74 + x75 + x76 + x77 + x78 + x79 + x80 + x81 + x82 + x83 + x84 + x85 + x86 + x87 + x88 + x89 + x90 + x91 + x92 + x93 + x94 + x95 + x96 + x97 + x98 + x99 + x100 + x101 + x102 + x103 + x104 + x105 + x106 + x107 + x108 + x109 + x110 + x111 + x112 + x113 + x114 + x115 + x116 + x117 + x118 + x119 + x120 + x121 + x122 + x123 + x124 + x125 + x126 + x127 + x128 + x129 + x130 + x131 + x132 + x133 + x134 + x135 + x136 + x137 + x138 + x139 + x140 + x141 + x142 + x143 + x144 + x145 + x146 + x147 + x148 + x149 + x150 + x151 + x152 + x153 + x154 + x155 + x156 + x157 + x158 + x159 >= 1

Binary
x0
x1
x2
x3
x4
x5
x6
x7
x8
x9
x10
x11
x12
x13
x14
x15
d0
d1
d2
d3
d4
d5
d6
d7
d8
d9
d10
d11
d12
d13
d14
d15
d16
d17
d18
d19
d20
d21
d22
d23
d24
d25
d26
d27
d28
d29
d30
d31
d32
d33
d34
d35
d36
d37
d38
d39
End
